(set-logic QF_LIA)
(set-info :ran/ran2.smt2)
(set-info :smt-lib-version 2.0)
(declare-fun x1 () Int)
(declare-fun x2 () Int)
(declare-fun x3 () Int)
(assert (<= (+ (* 3 x1) (* 1 x2) (* 4 x3) ) (- 341)))
(assert (<= (+ (* (- 1) x1) (* 7 x2) (* (- 1) x3) ) (- 134)))
(assert (<= (+ (* 10 x1) (* 1 x2) (* 0 x3) ) 489))
(assert (<= (+ (* 8 x1) (* (- 9) x2) (* (- 7) x3) ) (- 746)))
(assert (<= (+ (* (- 2) x1) (* (- 3) x2) (* 10 x3) ) 715))
(assert (<= (+ (* (- 2) x1) (* 1 x2) (* 10 x3) ) (- 738)))
(assert (<= (+ (* 1 x1) (* 0 x2) (* 0 x3) ) 891))
(assert (<= (+ (* (- 1) x1) (* 0 x2) (* 0 x3) ) 891))
(assert (<= (+ (* 0 x1) (* 1 x2) (* 0 x3) ) 891))
(assert (<= (+ (* 0 x1) (* (- 1) x2) (* 0 x3) ) 891))
(assert (<= (+ (* 0 x1) (* 0 x2) (* 1 x3) ) 891))
(assert (<= (+ (* 0 x1) (* 0 x2) (* (- 1) x3) ) 891))
